p cnf 24 58
a 16 9 0
e 1 2 3 4 5 6 7 8 10 11 12 13 14 15 17 18 19 20 21 22 23 24 0
-4 -2 0
-4 -3 0
2 3 4 0
4 -5 -6 0
-4 5 -6 0
4 5 6 0
-4 -5 6 0
-7 1 0
-7 -6 0
-1 6 7 0
7 3 -8 0
-7 -3 -8 0
7 -3 8 0
-7 3 8 0
9 -4 0
9 5 0
4 -5 -9 0
11 6 0
11 -10 0
-6 10 -11 0
12 -9 0
12 11 0
9 -11 -12 0
13 -8 0
13 12 0
8 -12 -13 0
15 10 0
15 14 0
-10 -14 -15 0
17 16 0
17 5 0
-16 -5 -17 0
15 -17 -18 0
-15 17 -18 0
15 17 18 0
-15 -17 18 0
-19 -2 0
-19 -3 0
2 3 19 0
-21 -20 0
-21 20 0
-22 -19 0
-22 -21 0
19 21 22 0
18 22 -23 0
-18 -22 -23 0
18 -22 23 0
-18 22 23 0
-13 23 -24 0
13 -23 -24 0
-13 -23 24 0
13 23 24 0
6 24 22 0
15 -10 24 -11 0
-7 -4 22 -9 24 2 0
8 12 22 -1 6 16 0
-9 10 -7 -14 -4 18 -5 0
24 0
